NAME : data_7_5_tsptw.tsptw
TYPE : TSPTW
DIMENSION : 8
EDGE_WEIGHT_TYPE : EXPLICIT
EDGE_WEIGHT_FORMAT : FULL_MATRIX
EDGE_WEIGHT_SECTION
0 3174 2486 3150 3049 2520 3009 2425
2912 0 1024 294 302 1017 262 1181
2220 1175 0 963 1043 217 982 215
2826 327 920 0 458 912 419 1076
2948 631 971 384 0 930 46 1094
2254 1118 250 906 867 0 856 410
2901 584 923 337 39 916 0 1080
2175 1286 198 1074 1036 169 1025 0
TIME_WINDOW_SECTION
1 0 600000
2 9000 19800
3 0 10800
4 3600 14400
5 10800 21600
6 10800 21600
7 1800 12600
8 1800 7200
DEPOT_SECTION
1
-1
EOF